NAME : mr63
COMMENT : 63-city problem (DISC)
TYPE : TSP
DIMENSION : 63
EDGE_WEIGHT_TYPE : EUC_2D
NODE_COORD_SECTION
1 56 83
2 40 56
3 5 74
4 53 94
5 16 26
6 51 99
7 26 56
8 55 49
9 55 61
10 23 61
11 9 61
12 46 97
13 78 62
14 69 35
15 87 19
16 46 88
17 57 80
18 1 17
19 88 75
20 58 74
21 95 11
22 90 16
23 69 2
24 90 49
25 20 61
26 81 69
27 3 10
28 93 92
29 67 3
30 75 56
31 97 32
32 40 45
33 32 56
34 50 96
35 30 7
36 55 13
37 30 43
38 24 13
39 70 24
40 35 41
41 46 24
42 61 40
43 12 76
44 41 70
45 27 41
46 60 32
47 92 93
48 19 67
49 99 51
50 69 34
51 56 38
52 95 15
53 68 83
54 61 57
55 41 72
56 54 68
57 97 9
58 6 66
59 92 80
60 85 98
61 96 98
62 1 65
63 92 36
EOF
